
Gurobi 9.5.1 (linux64) logging started Tue Mar 18 14:13:18 2025

Set parameter LogFile to value "gurobi_log.txt"
Set parameter DisplayInterval to value 1

Gurobi 9.5.1 (linux64) logging started Tue Mar 18 14:27:19 2025

Set parameter LogFile to value "gurobi_log.txt"
Gurobi Optimizer version 9.5.1 build v9.5.1rc2 (linux64)
Thread count: 48 physical cores, 96 logical processors, using up to 32 threads
Optimize a model with 9 rows, 6 columns and 18 nonzeros
Model fingerprint: 0x8a037601
Coefficient statistics:
  Matrix range     [7e-02, 1e+00]
  Objective range  [7e+00, 7e+00]
  Bounds range     [1e+00, 1e+02]
  RHS range        [1e+00, 1e+02]
Presolve removed 8 rows and 4 columns
Presolve time: 0.00s
Presolved: 1 rows, 2 columns, 2 nonzeros

Iteration    Objective       Primal Inf.    Dual Inf.      Time
       0    7.2000000e+01   1.388889e+00   0.000000e+00      0s
       1    6.2000000e+01   0.000000e+00   0.000000e+00      0s

Solved in 1 iterations and 0.00 seconds (0.00 work units)
Optimal objective  6.200000000e+01

Gurobi 9.5.1 (linux64, C++) logging started Tue Mar 18 14:30:31 2025

Set parameter Username
Set parameter LogFile to value "gurobi_log.txt"
Academic license - for non-commercial use only - expires 2026-03-11
Gurobi Optimizer version 9.5.1 build v9.5.1rc2 (linux64)
Thread count: 48 physical cores, 96 logical processors, using up to 32 threads
Optimize a model with 9 rows, 6 columns and 18 nonzeros
Model fingerprint: 0x8a037601
Coefficient statistics:
  Matrix range     [7e-02, 1e+00]
  Objective range  [7e+00, 7e+00]
  Bounds range     [1e+00, 1e+02]
  RHS range        [1e+00, 1e+02]
Presolve removed 8 rows and 4 columns
Presolve time: 0.00s
Presolved: 1 rows, 2 columns, 2 nonzeros

Iteration    Objective       Primal Inf.    Dual Inf.      Time
       0    7.2000000e+01   1.388889e+00   0.000000e+00      0s
       1    6.2000000e+01   0.000000e+00   0.000000e+00      0s

Solved in 1 iterations and 0.00 seconds (0.00 work units)
Optimal objective  6.200000000e+01

Gurobi 9.5.1 (linux64, C++) logging started Tue Mar 18 14:31:06 2025

Set parameter Username
Set parameter LogFile to value "gurobi_log.txt"
Academic license - for non-commercial use only - expires 2026-03-11
Gurobi Optimizer version 9.5.1 build v9.5.1rc2 (linux64)
Thread count: 48 physical cores, 96 logical processors, using up to 32 threads
Optimize a model with 9 rows, 6 columns and 18 nonzeros
Model fingerprint: 0x520f7b67
Coefficient statistics:
  Matrix range     [7e-02, 1e+00]
  Objective range  [7e+00, 7e+00]
  Bounds range     [1e+00, 1e+02]
  RHS range        [1e+00, 1e+02]
Presolve removed 9 rows and 6 columns
Presolve time: 0.00s
Presolve: All rows and columns removed
Iteration    Objective       Primal Inf.    Dual Inf.      Time
       0    6.8000000e+01   0.000000e+00   0.000000e+00      0s

Solved in 0 iterations and 0.00 seconds (0.00 work units)
Optimal objective  6.800000000e+01

Gurobi 9.5.1 (linux64, C++) logging started Tue Mar 18 14:31:39 2025

Set parameter Username
Set parameter LogFile to value "gurobi_log.txt"
Academic license - for non-commercial use only - expires 2026-03-11
Gurobi Optimizer version 9.5.1 build v9.5.1rc2 (linux64)
Thread count: 48 physical cores, 96 logical processors, using up to 32 threads
Optimize a model with 9 rows, 6 columns and 18 nonzeros
Model fingerprint: 0x8a037601
Coefficient statistics:
  Matrix range     [7e-02, 1e+00]
  Objective range  [7e+00, 7e+00]
  Bounds range     [1e+00, 1e+02]
  RHS range        [1e+00, 1e+02]
Presolve removed 8 rows and 4 columns
Presolve time: 0.00s
Presolved: 1 rows, 2 columns, 2 nonzeros

Iteration    Objective       Primal Inf.    Dual Inf.      Time
       0    7.2000000e+01   1.388889e+00   0.000000e+00      0s
       1    6.2000000e+01   0.000000e+00   0.000000e+00      0s

Solved in 1 iterations and 0.00 seconds (0.00 work units)
Optimal objective  6.200000000e+01

Gurobi 9.5.1 (linux64, C++) logging started Tue Mar 18 14:36:37 2025

Set parameter Username
Set parameter LogFile to value "gurobi_log.txt"
Academic license - for non-commercial use only - expires 2026-03-11
Gurobi Optimizer version 9.5.1 build v9.5.1rc2 (linux64)
Thread count: 48 physical cores, 96 logical processors, using up to 32 threads
Optimize a model with 9 rows, 6 columns and 18 nonzeros
Model fingerprint: 0x520f7b67
Coefficient statistics:
  Matrix range     [7e-02, 1e+00]
  Objective range  [7e+00, 7e+00]
  Bounds range     [1e+00, 1e+02]
  RHS range        [1e+00, 1e+02]
Presolve removed 9 rows and 6 columns
Presolve time: 0.00s
Presolve: All rows and columns removed
Iteration    Objective       Primal Inf.    Dual Inf.      Time
       0    6.8000000e+01   0.000000e+00   0.000000e+00      0s

Solved in 0 iterations and 0.00 seconds (0.00 work units)
Optimal objective  6.800000000e+01

Gurobi 9.5.1 (linux64, C++) logging started Tue Mar 18 14:37:01 2025

Set parameter Username
Set parameter LogFile to value "gurobi_log.txt"
Academic license - for non-commercial use only - expires 2026-03-11
Gurobi Optimizer version 9.5.1 build v9.5.1rc2 (linux64)
Thread count: 48 physical cores, 96 logical processors, using up to 32 threads
Optimize a model with 9 rows, 6 columns and 18 nonzeros
Model fingerprint: 0x8a037601
Coefficient statistics:
  Matrix range     [7e-02, 1e+00]
  Objective range  [7e+00, 7e+00]
  Bounds range     [1e+00, 1e+02]
  RHS range        [1e+00, 1e+02]
Presolve removed 8 rows and 4 columns
Presolve time: 0.00s
Presolved: 1 rows, 2 columns, 2 nonzeros

Iteration    Objective       Primal Inf.    Dual Inf.      Time
       0    7.2000000e+01   1.388889e+00   0.000000e+00      0s
       1    6.2000000e+01   0.000000e+00   0.000000e+00      0s

Solved in 1 iterations and 0.01 seconds (0.00 work units)
Optimal objective  6.200000000e+01

Gurobi 9.5.1 (linux64, C++) logging started Tue Mar 18 14:57:52 2025

Set parameter Username
Set parameter LogFile to value "gurobi_log.txt"
Academic license - for non-commercial use only - expires 2026-03-11

Gurobi 9.5.1 (linux64, C++) logging started Tue Mar 18 14:59:12 2025

Set parameter Username
Set parameter LogFile to value "gurobi_log.txt"
Academic license - for non-commercial use only - expires 2026-03-11
Gurobi Optimizer version 9.5.1 build v9.5.1rc2 (linux64)
Thread count: 48 physical cores, 96 logical processors, using up to 32 threads
Optimize a model with 9 rows, 6 columns and 18 nonzeros
Model fingerprint: 0x8a037601
Coefficient statistics:
  Matrix range     [7e-02, 1e+00]
  Objective range  [7e+00, 7e+00]
  Bounds range     [1e+00, 1e+02]
  RHS range        [1e+00, 1e+02]
Presolve removed 8 rows and 4 columns
Presolve time: 0.00s
Presolved: 1 rows, 2 columns, 2 nonzeros

Iteration    Objective       Primal Inf.    Dual Inf.      Time
       0    7.2000000e+01   1.388889e+00   0.000000e+00      0s
       1    6.2000000e+01   0.000000e+00   0.000000e+00      0s

Solved in 1 iterations and 0.00 seconds (0.00 work units)
Optimal objective  6.200000000e+01

Gurobi 9.5.1 (linux64, C++) logging started Tue Mar 18 14:59:15 2025

Set parameter Username
Set parameter LogFile to value "gurobi_log.txt"
Academic license - for non-commercial use only - expires 2026-03-11

Gurobi 9.5.1 (linux64, C++) logging started Tue Mar 18 14:59:20 2025

Set parameter Username
Set parameter LogFile to value "gurobi_log.txt"
Academic license - for non-commercial use only - expires 2026-03-11

Gurobi 9.5.1 (linux64, C++) logging started Tue Mar 18 15:00:03 2025

Set parameter Username
Set parameter LogFile to value "gurobi_log.txt"
Academic license - for non-commercial use only - expires 2026-03-11

Gurobi 9.5.1 (linux64, C++) logging started Tue Mar 18 15:00:27 2025

Set parameter Username
Set parameter LogFile to value "gurobi_log.txt"
Academic license - for non-commercial use only - expires 2026-03-11

Gurobi 9.5.1 (linux64, C++) logging started Tue Mar 18 15:01:23 2025

Set parameter Username
Set parameter LogFile to value "gurobi_log.txt"
Academic license - for non-commercial use only - expires 2026-03-11

Gurobi 9.5.1 (linux64, C++) logging started Tue Mar 18 15:02:25 2025

Set parameter Username
Set parameter LogFile to value "gurobi_log.txt"
Academic license - for non-commercial use only - expires 2026-03-11

Gurobi 9.5.1 (linux64, C++) logging started Tue Mar 18 15:02:35 2025

Set parameter Username
Set parameter LogFile to value "gurobi_log.txt"
Academic license - for non-commercial use only - expires 2026-03-11
Gurobi Optimizer version 9.5.1 build v9.5.1rc2 (linux64)
Thread count: 48 physical cores, 96 logical processors, using up to 32 threads
Optimize a model with 9 rows, 8 columns and 20 nonzeros
Model fingerprint: 0xa50b8235
Coefficient statistics:
  Matrix range     [7e-02, 1e+00]
  Objective range  [2e+00, 5e+00]
  Bounds range     [1e+00, 1e+02]
  RHS range        [1e+00, 1e+02]
Presolve removed 5 rows and 4 columns
Presolve time: 0.00s
Presolved: 4 rows, 4 columns, 8 nonzeros

Iteration    Objective       Primal Inf.    Dual Inf.      Time
       0    7.2000000e+01   1.000000e+00   0.000000e+00      0s
       1    6.8000000e+01   0.000000e+00   0.000000e+00      0s

Solved in 1 iterations and 0.00 seconds (0.00 work units)
Optimal objective  6.800000000e+01

Gurobi 9.5.1 (linux64, C++) logging started Tue Mar 18 15:04:20 2025

Set parameter Username
Set parameter LogFile to value "gurobi_log.txt"
Academic license - for non-commercial use only - expires 2026-03-11
Gurobi Optimizer version 9.5.1 build v9.5.1rc2 (linux64)
Thread count: 48 physical cores, 96 logical processors, using up to 32 threads
Optimize a model with 9 rows, 8 columns and 20 nonzeros
Model fingerprint: 0xa50b8235
Coefficient statistics:
  Matrix range     [7e-02, 1e+00]
  Objective range  [2e+00, 5e+00]
  Bounds range     [1e+00, 1e+02]
  RHS range        [1e+00, 1e+02]
Presolve removed 5 rows and 4 columns
Presolve time: 0.00s
Presolved: 4 rows, 4 columns, 8 nonzeros

Iteration    Objective       Primal Inf.    Dual Inf.      Time
       0    7.2000000e+01   1.000000e+00   0.000000e+00      0s
       1    6.8000000e+01   0.000000e+00   0.000000e+00      0s

Solved in 1 iterations and 0.01 seconds (0.00 work units)
Optimal objective  6.800000000e+01

Gurobi 9.5.1 (linux64, C++) logging started Tue Mar 18 15:15:38 2025

Set parameter Username
Set parameter LogFile to value "gurobi_log.txt"
Academic license - for non-commercial use only - expires 2026-03-11
Gurobi Optimizer version 9.5.1 build v9.5.1rc2 (linux64)
Thread count: 48 physical cores, 96 logical processors, using up to 32 threads
Optimize a model with 30 rows, 40 columns and 100 nonzeros
Model fingerprint: 0x02b9265f
Coefficient statistics:
  Matrix range     [8e-02, 1e+00]
  Objective range  [2e+00, 1e+01]
  Bounds range     [1e+00, 1e+02]
  RHS range        [1e+00, 1e+02]
Presolve removed 21 rows and 20 columns
Presolve time: 0.00s
Presolved: 9 rows, 20 columns, 40 nonzeros

Iteration    Objective       Primal Inf.    Dual Inf.      Time
       0    1.2880000e+02   4.000000e+00   0.000000e+00      0s
      10    7.3350000e+01   0.000000e+00   0.000000e+00      0s

Solved in 10 iterations and 0.00 seconds (0.00 work units)
Optimal objective  7.335000000e+01

Gurobi 9.5.1 (linux64, C++) logging started Tue Mar 18 15:29:44 2025

Set parameter Username
Set parameter LogFile to value "gurobi_log.txt"
Academic license - for non-commercial use only - expires 2026-03-11
Gurobi Optimizer version 9.5.1 build v9.5.1rc2 (linux64)
Thread count: 48 physical cores, 96 logical processors, using up to 32 threads
Optimize a model with 30 rows, 40 columns and 100 nonzeros
Model fingerprint: 0x23282564
Coefficient statistics:
  Matrix range     [4e-02, 1e+00]
  Objective range  [1e+00, 1e+01]
  Bounds range     [1e+00, 1e+02]
  RHS range        [1e+00, 1e+02]
Presolve removed 20 rows and 20 columns
Presolve time: 0.00s
Presolved: 10 rows, 20 columns, 60 nonzeros

Iteration    Objective       Primal Inf.    Dual Inf.      Time
       0    2.1636900e+03   3.033018e+02   0.000000e+00      0s
       7    1.7093000e+02   0.000000e+00   0.000000e+00      0s

Solved in 7 iterations and 0.01 seconds (0.00 work units)
Optimal objective  1.709300000e+02

Gurobi 9.5.1 (linux64, C++) logging started Tue Mar 18 15:31:55 2025

Set parameter Username
Set parameter LogFile to value "gurobi_log.txt"
Academic license - for non-commercial use only - expires 2026-03-11
Gurobi Optimizer version 9.5.1 build v9.5.1rc2 (linux64)
Thread count: 48 physical cores, 96 logical processors, using up to 32 threads
Optimize a model with 54 rows, 80 columns and 200 nonzeros
Model fingerprint: 0xcdfb1934
Coefficient statistics:
  Matrix range     [3e-02, 1e+00]
  Objective range  [1e+00, 2e+01]
  Bounds range     [1e+00, 1e+02]
  RHS range        [1e+00, 1e+02]
Presolve removed 40 rows and 40 columns
Presolve time: 0.00s
Presolved: 14 rows, 40 columns, 120 nonzeros

Iteration    Objective       Primal Inf.    Dual Inf.      Time
       0    2.0776176e+03   1.388869e+02   0.000000e+00      0s
      24    2.3615000e+02   0.000000e+00   0.000000e+00      0s

Solved in 24 iterations and 0.00 seconds (0.00 work units)
Optimal objective  2.361500000e+02

Gurobi 9.5.1 (linux64, C++) logging started Tue Mar 18 15:32:54 2025

Set parameter Username
Set parameter LogFile to value "gurobi_log.txt"
Academic license - for non-commercial use only - expires 2026-03-11
Gurobi Optimizer version 9.5.1 build v9.5.1rc2 (linux64)
Thread count: 48 physical cores, 96 logical processors, using up to 32 threads
Optimize a model with 56 rows, 84 columns and 210 nonzeros
Model fingerprint: 0xa410958e
Coefficient statistics:
  Matrix range     [3e-02, 1e+00]
  Objective range  [1e+00, 2e+01]
  Bounds range     [1e+00, 1e+02]
  RHS range        [1e+00, 1e+02]
Presolve removed 42 rows and 42 columns
Presolve time: 0.01s
Presolved: 14 rows, 42 columns, 126 nonzeros

Iteration    Objective       Primal Inf.    Dual Inf.      Time
       0    2.1334660e+03   2.968372e+02   0.000000e+00      0s
      20    2.6138000e+02   0.000000e+00   0.000000e+00      0s

Solved in 20 iterations and 0.01 seconds (0.00 work units)
Optimal objective  2.613800000e+02

Gurobi 9.5.1 (linux64, C++) logging started Tue Mar 18 15:34:46 2025

Set parameter Username
Set parameter LogFile to value "gurobi_log.txt"
Academic license - for non-commercial use only - expires 2026-03-11
Gurobi Optimizer version 9.5.1 build v9.5.1rc2 (linux64)
Thread count: 48 physical cores, 96 logical processors, using up to 32 threads
Optimize a model with 16 rows, 18 columns and 45 nonzeros
Model fingerprint: 0x7eeb9b1a
Coefficient statistics:
  Matrix range     [9e-02, 1e+00]
  Objective range  [1e+00, 1e+01]
  Bounds range     [1e+00, 1e+02]
  RHS range        [1e+00, 1e+02]
Presolve removed 10 rows and 9 columns
Presolve time: 0.00s
Presolved: 6 rows, 9 columns, 18 nonzeros

Iteration    Objective       Primal Inf.    Dual Inf.      Time
       0    1.3632000e+02   2.000000e+00   0.000000e+00      0s
       3    8.7560000e+01   0.000000e+00   0.000000e+00      0s

Solved in 3 iterations and 0.00 seconds (0.00 work units)
Optimal objective  8.756000000e+01

Gurobi 9.5.1 (linux64, C++) logging started Tue Mar 18 15:35:01 2025

Set parameter Username
Set parameter LogFile to value "gurobi_log.txt"
Academic license - for non-commercial use only - expires 2026-03-11
Gurobi Optimizer version 9.5.1 build v9.5.1rc2 (linux64)
Thread count: 48 physical cores, 96 logical processors, using up to 32 threads
Optimize a model with 12 rows, 12 columns and 30 nonzeros
Model fingerprint: 0x0e6202ce
Coefficient statistics:
  Matrix range     [5e-01, 6e+00]
  Objective range  [6e+00, 1e+01]
  Bounds range     [1e+00, 1e+02]
  RHS range        [1e+00, 3e+01]
Presolve removed 7 rows and 6 columns
Presolve time: 0.00s
Presolved: 5 rows, 6 columns, 12 nonzeros

Iteration    Objective       Primal Inf.    Dual Inf.      Time
       0    2.7445800e+01   1.000000e+00   0.000000e+00      0s
       1    2.3804900e+01   0.000000e+00   0.000000e+00      0s

Solved in 1 iterations and 0.01 seconds (0.00 work units)
Optimal objective  2.380490000e+01

Gurobi 9.5.1 (linux64, C++) logging started Tue Mar 18 15:35:55 2025

Set parameter Username
Set parameter LogFile to value "gurobi_log.txt"
Academic license - for non-commercial use only - expires 2026-03-11
Gurobi Optimizer version 9.5.1 build v9.5.1rc2 (linux64)
Thread count: 48 physical cores, 96 logical processors, using up to 32 threads
Optimize a model with 12 rows, 12 columns and 30 nonzeros
Model fingerprint: 0xc6a5ab2e
Coefficient statistics:
  Matrix range     [9e-02, 1e+00]
  Objective range  [1e+00, 1e+01]
  Bounds range     [1e+00, 1e+02]
  RHS range        [1e+00, 1e+02]
Presolve removed 7 rows and 6 columns
Presolve time: 0.00s
Presolved: 5 rows, 6 columns, 12 nonzeros

Iteration    Objective       Primal Inf.    Dual Inf.      Time
       0    9.0880000e+01   1.000000e+00   0.000000e+00      0s
       1    7.5240000e+01   0.000000e+00   0.000000e+00      0s

Solved in 1 iterations and 0.00 seconds (0.00 work units)
Optimal objective  7.524000000e+01

Gurobi 9.5.1 (linux64, C++) logging started Tue Mar 18 15:36:12 2025

Set parameter Username
Set parameter LogFile to value "gurobi_log.txt"
Academic license - for non-commercial use only - expires 2026-03-11
Gurobi Optimizer version 9.5.1 build v9.5.1rc2 (linux64)
Thread count: 48 physical cores, 96 logical processors, using up to 32 threads
Optimize a model with 12 rows, 12 columns and 30 nonzeros
Model fingerprint: 0x7e284eca
Coefficient statistics:
  Matrix range     [4e-02, 1e+00]
  Objective range  [1e+00, 1e+01]
  Bounds range     [1e+00, 1e+02]
  RHS range        [1e+00, 1e+02]
Presolve removed 7 rows and 6 columns
Presolve time: 0.00s
Presolved: 5 rows, 6 columns, 12 nonzeros

Iteration    Objective       Primal Inf.    Dual Inf.      Time
       0    9.0880000e+01   1.000000e+00   0.000000e+00      0s
       1    7.5360000e+01   0.000000e+00   0.000000e+00      0s

Solved in 1 iterations and 0.00 seconds (0.00 work units)
Optimal objective  7.536000000e+01

Gurobi 9.5.1 (linux64, C++) logging started Tue Mar 18 15:40:20 2025

Set parameter Username
Set parameter LogFile to value "gurobi_log.txt"
Academic license - for non-commercial use only - expires 2026-03-11
Gurobi Optimizer version 9.5.1 build v9.5.1rc2 (linux64)
Thread count: 48 physical cores, 96 logical processors, using up to 32 threads
Optimize a model with 24 rows, 30 columns and 75 nonzeros
Model fingerprint: 0xa06a434b
Coefficient statistics:
  Matrix range     [3e-02, 1e+00]
  Objective range  [1e+00, 1e+01]
  Bounds range     [1e+00, 1e+02]
  RHS range        [1e+00, 6e+01]
Presolve removed 15 rows and 15 columns
Presolve time: 0.00s
Presolved: 9 rows, 15 columns, 45 nonzeros

Iteration    Objective       Primal Inf.    Dual Inf.      Time
       0    5.3697280e+02   5.550253e+01   0.000000e+00      0s
       6    1.0191000e+02   0.000000e+00   0.000000e+00      0s

Solved in 6 iterations and 0.00 seconds (0.00 work units)
Optimal objective  1.019100000e+02
